\LP file generated from the problem `Slots selection' by the
\Xpress Builder Component Library Xpress BCL

Minimize
obj: 1.00035e+006 WR_(0) + 1.00084e+006 WR_(1) + 1.00087e+006 WR_(2) + 1.00086e+006 WR_(3) + 
1.00084e+006 WR_(4) + 1.0003e+006 WR_(5) + 1.00084e+006 WR_(6) + 1.0009e+006 WR_(7) + 
1.00086e+006 WR_(8) + 1.00032e+006 WR_(9) + 1.00084e+006 WR_(10) + 1.00032e+006 WR_(11) + 
1.00033e+006 WR_(12) + 1.0003e+006 WR_(13) + 1.0003e+006 WR_(14) + 1.0003e+006 WR_(15) + 
1.00036e+006 WR_(16) + 1.00036e+006 WR_(17) + 1.0003e+006 WR_(18) + 1.00033e+006 WR_(19) + 
1.00039e+006 WR_(20) + 1.0003e+006 WR_(21) + 1.00033e+006 WR_(22) + 1.00036e+006 WR_(23) + 
1.00033e+006 WR_(24) + 1.00036e+006 WR_(25) + 1.00036e+006 WR_(26) + 1.00036e+006 WR_(27) + 
1.0003e+006 WR_(28) + 1.00035e+006 WR_(29) + 1.00035e+006 WR_(30) + 1.00033e+006 WR_(31) + 
1.00036e+006 WR_(32) + 1.0003e+006 WR_(33) + 1.0003e+006 WR_(34) + 1.0003e+006 WR_(35) + 
1.0003e+006 WR_(36) + 1.00036e+006 WR_(37) + 1.0003e+006 WR_(38) + 1.0003e+006 WR_(39) + 
1.0003e+006 WR_(40) + 1.0003e+006 WR_(41) + 1.00003e+006 WR_(42) + 1.00008e+006 WR_(43) + 
1.00008e+006 WR_(44) + 1.00003e+006 WR_(45) + 1.00006e+006 WR_(46) + 1.00005e+006 WR_(47) + 
1.00005e+006 WR_(48) + 1.00006e+006 WR_(49) + 1.00003e+006 WR_(50) + 1.00003e+006 WR_(51) + 
1.00008e+006 WR_(52) + 1.00003e+006 WR_(53) + 1.00003e+006 WR_(54) + 1.00009e+006 WR_(55) + 
1.00003e+006 WR_(56) + 1.00009e+006 WR_(57) + 1.00003e+006 WR_(58) + 1.00006e+006 WR_(59) + 
1.00012e+006 WR_(60) + 1.00003e+006 WR_(61) + 1.00003e+006 WR_(62) + 1.00006e+006 WR_(63) + 
1.00009e+006 WR_(64) + 1.00006e+006 WR_(65) + 1.00009e+006 WR_(66) + 1.00006e+006 WR_(67) + 
1.00009e+006 WR_(68) + 1.00003e+006 WR_(69) + 1.00003e+006 WR_(70) + 1.00009e+006 WR_(71) + 
1.00009e+006 WR_(72) + 1.00005e+006 WR_(73) + 1.00003e+006 WR_(74) + 1.00005e+006 WR_(75) + 
1.00009e+006 WR_(76) + 1.00003e+006 WR_(77) + 1.00003e+006 WR_(78) + 1.00009e+006 WR_(79) + 
1.00003e+006 WR_(80) + 1.00003e+006 WR_(81) + 1.00003e+006 WR_(82) + 1.00003e+006 WR_(83)

Subject To
slot_74: = 0
slot_73: = 0
slot_72: = 0
slot_71: = 0
slot_70: = 0
slot_69: = 0
slot_68: = 0
slot_67: = 0
slot_66: = 0
slot_65: = 0
slot_64: = 0
slot_63: = 0
slot_62: = 0
slot_61: = 0
slot_60: = 0
slot_59: = 0
slot_58: = 0
slot_57: = 0
slot_56: = 0
slot_55: = 0
slot_54: = 0
slot_53: = 0
slot_52: = 0
slot_51: = 0
slot_50: = 0
slot_49: = 0
slot_48: = 0
slot_47: = 0
slot_46: = 0
slot_45: = 0
slot_44: = 0
slot_43: = 0
slot_42: WR_(41) + WR_(83) = 1
slot_41: WR_(40) + WR_(82) = 1
slot_40: WR_(39) + WR_(81) = 1
slot_39: WR_(38) + WR_(80) = 1
slot_38: WR_(37) + WR_(79) = 1
slot_37: WR_(36) + WR_(78) = 1
slot_36: WR_(10) + WR_(77) = 1
slot_35: WR_(27) + WR_(76) = 1
slot_34: WR_(9) + WR_(75) = 1
slot_33: WR_(35) + WR_(74) = 1
slot_32: WR_(8) + WR_(73) = 1
slot_31: WR_(7) + WR_(72) = 1
slot_30: WR_(26) + WR_(71) = 1
slot_29: WR_(34) + WR_(70) = 1
slot_28: WR_(33) + WR_(69) = 1
slot_27: WR_(32) + WR_(68) = 1
slot_26: WR_(31) + WR_(67) = 1
slot_25: WR_(25) + WR_(66) = 1
slot_24: WR_(24) + WR_(65) = 1
slot_23: WR_(23) + WR_(64) = 1
slot_22: WR_(22) + WR_(63) = 1
slot_21: WR_(21) + WR_(62) = 1
slot_20: WR_(6) + WR_(61) = 1
slot_19: WR_(20) + WR_(60) = 1
slot_18: WR_(19) + WR_(59) = 1
slot_17: WR_(18) + WR_(58) = 1
slot_16: WR_(17) + WR_(57) = 1
slot_15: WR_(5) + WR_(56) = 1
slot_14: WR_(16) + WR_(55) = 1
slot_13: WR_(15) + WR_(54) = 1
slot_12: WR_(4) + WR_(53) = 1
slot_11: WR_(30) + WR_(52) = 1
slot_10: WR_(14) + WR_(51) = 1
slot_9: WR_(13) + WR_(50) = 1
slot_8: WR_(12) + WR_(49) = 1
slot_7: WR_(11) + WR_(48) = 1
slot_6: WR_(3) + WR_(47) = 1
slot_5: WR_(2) + WR_(46) = 1
slot_4: WR_(1) + WR_(45) = 1
slot_3: WR_(0) + WR_(44) = 1
slot_2: WR_(29) + WR_(43) = 1
slot_1: WR_(28) + WR_(42) = 1
slot: = 0

Bounds

Binaries
WR_(0) WR_(1) WR_(2) WR_(3) WR_(4) WR_(5) WR_(6) WR_(7) WR_(8) WR_(9) WR_(10) 
WR_(11) WR_(12) WR_(13) WR_(14) WR_(15) WR_(16) WR_(17) WR_(18) WR_(19) WR_(20) 
WR_(21) WR_(22) WR_(23) WR_(24) WR_(25) WR_(26) WR_(27) WR_(28) WR_(29) WR_(30) 
WR_(31) WR_(32) WR_(33) WR_(34) WR_(35) WR_(36) WR_(37) WR_(38) WR_(39) WR_(40) 
WR_(41) WR_(42) WR_(43) WR_(44) WR_(45) WR_(46) WR_(47) WR_(48) WR_(49) WR_(50) 
WR_(51) WR_(52) WR_(53) WR_(54) WR_(55) WR_(56) WR_(57) WR_(58) WR_(59) WR_(60) 
WR_(61) WR_(62) WR_(63) WR_(64) WR_(65) WR_(66) WR_(67) WR_(68) WR_(69) WR_(70) 
WR_(71) WR_(72) WR_(73) WR_(74) WR_(75) WR_(76) WR_(77) WR_(78) WR_(79) WR_(80) 
WR_(81) WR_(82) WR_(83) 

End
